(declare-fun ExpandObjSwitcher () Real)
(declare-fun Constructed_Argument_t () String)
(declare-fun CreateAsClass () Bool)
(assert (not (= ExpandObjSwitcher 0.0)))
(assert (not (= ExpandObjSwitcher 1.0)))
(assert (= ExpandObjSwitcher 2.0))
(assert (not (= Constructed_Argument_t "string")))
(assert (not (= Constructed_Argument_t "number")))
(assert (not (= Constructed_Argument_t "boolean")))
(assert (not (= Constructed_Argument_t "object")))
(assert (not (= Constructed_Argument_t "array_number")))
(assert (not (= Constructed_Argument_t "array_string")))
(assert (not (= Constructed_Argument_t "array_bool")))
(assert (not (= Constructed_Argument_t "null")))
(assert CreateAsClass)
(check-sat)
